graph-dp/data/a_toy.gr
0 1
0 2
1 2
4 5
4 6
5 6
4 7
